c nIsolatedPIs 112
c maxPI 144
p cnf 494 1051
c gate 145 69 141 0
69 -145 0
141 -145 0
-69 -141 145 0
c gate 146 70 142 0
70 -146 0
142 -146 0
-70 -142 146 0
c gate 147 -145 -146 0
-145 -147 0
-146 -147 0
145 146 147 0
c gate 148 -69 -141 0
-69 -148 0
-141 -148 0
69 141 148 0
c gate 149 60 132 0
60 -149 0
132 -149 0
-60 -132 149 0
c gate 150 -60 -132 0
-60 -150 0
-132 -150 0
60 132 150 0
c gate 151 59 131 0
59 -151 0
131 -151 0
-59 -131 151 0
c gate 152 -150 151 0
-150 -152 0
151 -152 0
150 -151 152 0
c gate 153 -149 -152 0
-149 -153 0
-152 -153 0
149 152 153 0
c gate 154 58 130 0
58 -154 0
130 -154 0
-58 -130 154 0
c gate 155 57 129 0
57 -155 0
129 -155 0
-57 -129 155 0
c gate 156 -154 -155 0
-154 -156 0
-155 -156 0
154 155 156 0
c gate 157 -58 -130 0
-58 -157 0
-130 -157 0
58 130 157 0
c gate 158 -59 -131 0
-59 -158 0
-131 -158 0
59 131 158 0
c gate 159 -150 -158 0
-150 -159 0
-158 -159 0
150 158 159 0
c gate 160 -157 159 0
-157 -160 0
159 -160 0
157 -159 160 0
c gate 161 153 160 0
153 -161 0
160 -161 0
-153 -160 161 0
c gate 162 -156 161 0
-156 -162 0
161 -162 0
156 -161 162 0
c gate 163 153 -162 0
153 -163 0
-162 -163 0
-153 162 163 0
c gate 164 -62 -134 0
-62 -164 0
-134 -164 0
62 134 164 0
c gate 165 -63 -135 0
-63 -165 0
-135 -165 0
63 135 165 0
c gate 166 -164 -165 0
-164 -166 0
-165 -166 0
164 165 166 0
c gate 167 63 135 0
63 -167 0
135 -167 0
-63 -135 167 0
c gate 168 64 136 0
64 -168 0
136 -168 0
-64 -136 168 0
c gate 169 -167 -168 0
-167 -169 0
-168 -169 0
167 168 169 0
c gate 170 -64 -136 0
-64 -170 0
-136 -170 0
64 136 170 0
c gate 171 169 -170 0
169 -171 0
-170 -171 0
-169 170 171 0
c gate 172 166 171 0
166 -172 0
171 -172 0
-166 -171 172 0
c gate 173 61 133 0
61 -173 0
133 -173 0
-61 -133 173 0
c gate 174 62 134 0
62 -174 0
134 -174 0
-62 -134 174 0
c gate 175 -173 -174 0
-173 -175 0
-174 -175 0
173 174 175 0
c gate 176 -61 -133 0
-61 -176 0
-133 -176 0
61 133 176 0
c gate 177 175 -176 0
175 -177 0
-176 -177 0
-175 176 177 0
c gate 178 172 177 0
172 -178 0
177 -178 0
-172 -177 178 0
c gate 179 -163 178 0
-163 -179 0
178 -179 0
163 -178 179 0
c gate 180 166 -175 0
166 -180 0
-175 -180 0
-166 175 180 0
c gate 181 169 -180 0
169 -181 0
-180 -181 0
-169 180 181 0
c gate 182 -170 -181 0
-170 -182 0
-181 -182 0
170 181 182 0
c gate 183 -179 -182 0
-179 -183 0
-182 -183 0
179 182 183 0
c gate 184 68 140 0
68 -184 0
140 -184 0
-68 -140 184 0
c gate 185 -68 -140 0
-68 -185 0
-140 -185 0
68 140 185 0
c gate 186 67 139 0
67 -186 0
139 -186 0
-67 -139 186 0
c gate 187 -185 186 0
-185 -187 0
186 -187 0
185 -186 187 0
c gate 188 -184 -187 0
-184 -188 0
-187 -188 0
184 187 188 0
c gate 189 -66 -138 0
-66 -189 0
-138 -189 0
66 138 189 0
c gate 190 -67 -139 0
-67 -190 0
-139 -190 0
67 139 190 0
c gate 191 -185 -190 0
-185 -191 0
-190 -191 0
185 190 191 0
c gate 192 -189 191 0
-189 -192 0
191 -192 0
189 -191 192 0
c gate 193 188 192 0
188 -193 0
192 -193 0
-188 -192 193 0
c gate 194 -65 -137 0
-65 -194 0
-137 -194 0
65 137 194 0
c gate 195 66 138 0
66 -195 0
138 -195 0
-66 -138 195 0
c gate 196 65 137 0
65 -196 0
137 -196 0
-65 -137 196 0
c gate 197 -195 -196 0
-195 -197 0
-196 -197 0
195 196 197 0
c gate 198 -194 197 0
-194 -198 0
197 -198 0
194 -197 198 0
c gate 199 193 198 0
193 -199 0
198 -199 0
-193 -198 199 0
c gate 200 -183 199 0
-183 -200 0
199 -200 0
183 -199 200 0
c gate 201 193 -197 0
193 -201 0
-197 -201 0
-193 197 201 0
c gate 202 188 -201 0
188 -202 0
-201 -202 0
-188 201 202 0
c gate 203 -200 202 0
-200 -203 0
202 -203 0
200 -202 203 0
c gate 204 -148 -203 0
-148 -204 0
-203 -204 0
148 203 204 0
c gate 205 147 -204 0
147 -205 0
-204 -205 0
-147 204 205 0
c gate 206 -56 -128 0
-56 -206 0
-128 -206 0
56 128 206 0
c gate 207 56 128 0
56 -207 0
128 -207 0
-56 -128 207 0
c gate 208 55 127 0
55 -208 0
127 -208 0
-55 -127 208 0
c gate 209 -207 -208 0
-207 -209 0
-208 -209 0
207 208 209 0
c gate 210 -55 -127 0
-55 -210 0
-127 -210 0
55 127 210 0
c gate 211 -54 -126 0
-54 -211 0
-126 -211 0
54 126 211 0
c gate 212 -210 -211 0
-210 -212 0
-211 -212 0
210 211 212 0
c gate 213 54 126 0
54 -213 0
126 -213 0
-54 -126 213 0
c gate 214 53 125 0
53 -214 0
125 -214 0
-53 -125 214 0
c gate 215 -213 -214 0
-213 -215 0
-214 -215 0
213 214 215 0
c gate 216 -53 -125 0
-53 -216 0
-125 -216 0
53 125 216 0
c gate 217 49 121 0
49 -217 0
121 -217 0
-49 -121 217 0
c gate 218 50 122 0
50 -218 0
122 -218 0
-50 -122 218 0
c gate 219 -217 -218 0
-217 -219 0
-218 -219 0
217 218 219 0
c gate 220 -51 -123 0
-51 -220 0
-123 -220 0
51 123 220 0
c gate 221 -50 -122 0
-50 -221 0
-122 -221 0
50 122 221 0
c gate 222 -52 -124 0
-52 -222 0
-124 -222 0
52 124 222 0
c gate 223 -221 -222 0
-221 -223 0
-222 -223 0
221 222 223 0
c gate 224 -220 223 0
-220 -224 0
223 -224 0
220 -223 224 0
c gate 225 -219 224 0
-219 -225 0
224 -225 0
219 -224 225 0
c gate 226 52 124 0
52 -226 0
124 -226 0
-52 -124 226 0
c gate 227 51 123 0
51 -227 0
123 -227 0
-51 -123 227 0
c gate 228 -222 227 0
-222 -228 0
227 -228 0
222 -227 228 0
c gate 229 -226 -228 0
-226 -229 0
-228 -229 0
226 228 229 0
c gate 230 -225 229 0
-225 -230 0
229 -230 0
225 -229 230 0
c gate 231 -216 -230 0
-216 -231 0
-230 -231 0
216 230 231 0
c gate 232 215 -231 0
215 -232 0
-231 -232 0
-215 231 232 0
c gate 233 212 -232 0
212 -233 0
-232 -233 0
-212 232 233 0
c gate 234 209 -233 0
209 -234 0
-233 -234 0
-209 233 234 0
c gate 235 -206 -234 0
-206 -235 0
-234 -235 0
206 234 235 0
c gate 236 209 212 0
209 -236 0
212 -236 0
-209 -212 236 0
c gate 237 215 219 0
215 -237 0
219 -237 0
-215 -219 237 0
c gate 238 236 237 0
236 -238 0
237 -238 0
-236 -237 238 0
c gate 239 -49 -121 0
-49 -239 0
-121 -239 0
49 121 239 0
c gate 240 -206 -216 0
-206 -240 0
-216 -240 0
206 216 240 0
c gate 241 -239 240 0
-239 -241 0
240 -241 0
239 -240 241 0
c gate 242 224 241 0
224 -242 0
241 -242 0
-224 -241 242 0
c gate 243 229 242 0
229 -243 0
242 -243 0
-229 -242 243 0
c gate 244 238 243 0
238 -244 0
243 -244 0
-238 -243 244 0
c gate 245 -48 -120 0
-48 -245 0
-120 -245 0
48 120 245 0
c gate 246 -47 -119 0
-47 -246 0
-119 -246 0
47 119 246 0
c gate 247 -46 -118 0
-46 -247 0
-118 -247 0
46 118 247 0
c gate 248 -246 -247 0
-246 -248 0
-247 -248 0
246 247 248 0
c gate 249 46 118 0
46 -249 0
118 -249 0
-46 -118 249 0
c gate 250 45 117 0
45 -250 0
117 -250 0
-45 -117 250 0
c gate 251 -249 -250 0
-249 -251 0
-250 -251 0
249 250 251 0
c gate 252 248 -251 0
248 -252 0
-251 -252 0
-248 251 252 0
c gate 253 47 119 0
47 -253 0
119 -253 0
-47 -119 253 0
c gate 254 48 120 0
48 -254 0
120 -254 0
-48 -120 254 0
c gate 255 -253 -254 0
-253 -255 0
-254 -255 0
253 254 255 0
c gate 256 -252 255 0
-252 -256 0
255 -256 0
252 -255 256 0
c gate 257 -45 -117 0
-45 -257 0
-117 -257 0
45 117 257 0
c gate 258 248 -257 0
248 -258 0
-257 -258 0
-248 257 258 0
c gate 259 44 116 0
44 -259 0
116 -259 0
-44 -116 259 0
c gate 260 -44 -116 0
-44 -260 0
-116 -260 0
44 116 260 0
c gate 261 43 115 0
43 -261 0
115 -261 0
-43 -115 261 0
c gate 262 -260 261 0
-260 -262 0
261 -262 0
260 -261 262 0
c gate 263 -259 -262 0
-259 -263 0
-262 -263 0
259 262 263 0
c gate 264 42 114 0
42 -264 0
114 -264 0
-42 -114 264 0
c gate 265 41 113 0
41 -265 0
113 -265 0
-41 -113 265 0
c gate 266 -264 -265 0
-264 -266 0
-265 -266 0
264 265 266 0
c gate 267 -42 -114 0
-42 -267 0
-114 -267 0
42 114 267 0
c gate 268 -43 -115 0
-43 -268 0
-115 -268 0
43 115 268 0
c gate 269 -260 -268 0
-260 -269 0
-268 -269 0
260 268 269 0
c gate 270 -267 269 0
-267 -270 0
269 -270 0
267 -269 270 0
c gate 271 263 270 0
263 -271 0
270 -271 0
-263 -270 271 0
c gate 272 -266 271 0
-266 -272 0
271 -272 0
266 -271 272 0
c gate 273 263 -272 0
263 -273 0
-272 -273 0
-263 272 273 0
c gate 274 258 -273 0
258 -274 0
-273 -274 0
-258 273 274 0
c gate 275 256 -274 0
256 -275 0
-274 -275 0
-256 274 275 0
c gate 276 -245 -275 0
-245 -276 0
-275 -276 0
245 275 276 0
c gate 277 -41 -113 0
-41 -277 0
-113 -277 0
41 113 277 0
c gate 278 -245 -277 0
-245 -278 0
-277 -278 0
245 277 278 0
c gate 279 266 278 0
266 -279 0
278 -279 0
-266 -278 279 0
c gate 280 258 279 0
258 -280 0
279 -280 0
-258 -279 280 0
c gate 281 256 280 0
256 -281 0
280 -281 0
-256 -280 281 0
c gate 282 271 281 0
271 -282 0
281 -282 0
-271 -281 282 0
c gate 283 -40 -112 0
-40 -283 0
-112 -283 0
40 112 283 0
c gate 284 40 112 0
40 -284 0
112 -284 0
-40 -112 284 0
c gate 285 39 111 0
39 -285 0
111 -285 0
-39 -111 285 0
c gate 286 -284 -285 0
-284 -286 0
-285 -286 0
284 285 286 0
c gate 287 -39 -111 0
-39 -287 0
-111 -287 0
39 111 287 0
c gate 288 -38 -110 0
-38 -288 0
-110 -288 0
38 110 288 0
c gate 289 -287 -288 0
-287 -289 0
-288 -289 0
287 288 289 0
c gate 290 38 110 0
38 -290 0
110 -290 0
-38 -110 290 0
c gate 291 37 109 0
37 -291 0
109 -291 0
-37 -109 291 0
c gate 292 -290 -291 0
-290 -292 0
-291 -292 0
290 291 292 0
c gate 293 -37 -109 0
-37 -293 0
-109 -293 0
37 109 293 0
c gate 294 36 108 0
36 -294 0
108 -294 0
-36 -108 294 0
c gate 295 -36 -108 0
-36 -295 0
-108 -295 0
36 108 295 0
c gate 296 35 -295 0
35 -296 0
-295 -296 0
-35 295 296 0
c gate 297 107 296 0
107 -297 0
296 -297 0
-107 -296 297 0
c gate 298 -294 -297 0
-294 -298 0
-297 -298 0
294 297 298 0
c gate 299 107 -295 0
107 -299 0
-295 -299 0
-107 295 299 0
c gate 300 -296 -299 0
-296 -300 0
-299 -300 0
296 299 300 0
c gate 301 33 105 0
33 -301 0
105 -301 0
-33 -105 301 0
c gate 302 34 106 0
34 -302 0
106 -302 0
-34 -106 302 0
c gate 303 -301 -302 0
-301 -303 0
-302 -303 0
301 302 303 0
c gate 304 -34 -106 0
-34 -304 0
-106 -304 0
34 106 304 0
c gate 305 -303 -304 0
-303 -305 0
-304 -305 0
303 304 305 0
c gate 306 -300 305 0
-300 -306 0
305 -306 0
300 -305 306 0
c gate 307 298 -306 0
298 -307 0
-306 -307 0
-298 306 307 0
c gate 308 -293 -307 0
-293 -308 0
-307 -308 0
293 307 308 0
c gate 309 292 -308 0
292 -309 0
-308 -309 0
-292 308 309 0
c gate 310 289 -309 0
289 -310 0
-309 -310 0
-289 309 310 0
c gate 311 286 -310 0
286 -311 0
-310 -311 0
-286 310 311 0
c gate 312 -283 -311 0
-283 -312 0
-311 -312 0
283 311 312 0
c gate 313 286 303 0
286 -313 0
303 -313 0
-286 -303 313 0
c gate 314 289 292 0
289 -314 0
292 -314 0
-289 -292 314 0
c gate 315 313 314 0
313 -315 0
314 -315 0
-313 -314 315 0
c gate 316 -293 -304 0
-293 -316 0
-304 -316 0
293 304 316 0
c gate 317 -33 -105 0
-33 -317 0
-105 -317 0
33 105 317 0
c gate 318 -283 -317 0
-283 -318 0
-317 -318 0
283 317 318 0
c gate 319 316 318 0
316 -319 0
318 -319 0
-316 -318 319 0
c gate 320 -300 319 0
-300 -320 0
319 -320 0
300 -319 320 0
c gate 321 315 320 0
315 -321 0
320 -321 0
-315 -320 321 0
c gate 322 298 321 0
298 -322 0
321 -322 0
-298 -321 322 0
c gate 323 -32 -104 0
-32 -323 0
-104 -323 0
32 104 323 0
c gate 324 31 103 0
31 -324 0
103 -324 0
-31 -103 324 0
c gate 325 32 104 0
32 -325 0
104 -325 0
-32 -104 325 0
c gate 326 -324 -325 0
-324 -326 0
-325 -326 0
324 325 326 0
c gate 327 -30 -102 0
-30 -327 0
-102 -327 0
30 102 327 0
c gate 328 -31 -103 0
-31 -328 0
-103 -328 0
31 103 328 0
c gate 329 -327 -328 0
-327 -329 0
-328 -329 0
327 328 329 0
c gate 330 30 102 0
30 -330 0
102 -330 0
-30 -102 330 0
c gate 331 29 101 0
29 -331 0
101 -331 0
-29 -101 331 0
c gate 332 -330 -331 0
-330 -332 0
-331 -332 0
330 331 332 0
c gate 333 -27 -99 0
-27 -333 0
-99 -333 0
27 99 333 0
c gate 334 -26 -98 0
-26 -334 0
-98 -334 0
26 98 334 0
c gate 335 -28 -100 0
-28 -335 0
-100 -335 0
28 100 335 0
c gate 336 -334 -335 0
-334 -336 0
-335 -336 0
334 335 336 0
c gate 337 -333 336 0
-333 -337 0
336 -337 0
333 -336 337 0
c gate 338 26 98 0
26 -338 0
98 -338 0
-26 -98 338 0
c gate 339 25 97 0
25 -339 0
97 -339 0
-25 -97 339 0
c gate 340 -338 -339 0
-338 -340 0
-339 -340 0
338 339 340 0
c gate 341 337 -340 0
337 -341 0
-340 -341 0
-337 340 341 0
c gate 342 28 100 0
28 -342 0
100 -342 0
-28 -100 342 0
c gate 343 27 99 0
27 -343 0
99 -343 0
-27 -99 343 0
c gate 344 -335 343 0
-335 -344 0
343 -344 0
335 -343 344 0
c gate 345 -342 -344 0
-342 -345 0
-344 -345 0
342 344 345 0
c gate 346 -341 345 0
-341 -346 0
345 -346 0
341 -345 346 0
c gate 347 -29 -101 0
-29 -347 0
-101 -347 0
29 101 347 0
c gate 348 -346 -347 0
-346 -348 0
-347 -348 0
346 347 348 0
c gate 349 332 -348 0
332 -349 0
-348 -349 0
-332 348 349 0
c gate 350 329 -349 0
329 -350 0
-349 -350 0
-329 349 350 0
c gate 351 326 -350 0
326 -351 0
-350 -351 0
-326 350 351 0
c gate 352 -323 -351 0
-323 -352 0
-351 -352 0
323 351 352 0
c gate 353 2 74 0
2 -353 0
74 -353 0
-2 -74 353 0
c gate 354 1 73 0
1 -354 0
73 -354 0
-1 -73 354 0
c gate 355 -353 -354 0
-353 -355 0
-354 -355 0
353 354 355 0
c gate 356 -3 -75 0
-3 -356 0
-75 -356 0
3 75 356 0
c gate 357 -2 -74 0
-2 -357 0
-74 -357 0
2 74 357 0
c gate 358 -356 -357 0
-356 -358 0
-357 -358 0
356 357 358 0
c gate 359 -355 358 0
-355 -359 0
358 -359 0
355 -358 359 0
c gate 360 4 76 0
4 -360 0
76 -360 0
-4 -76 360 0
c gate 361 3 75 0
3 -361 0
75 -361 0
-3 -75 361 0
c gate 362 -360 -361 0
-360 -362 0
-361 -362 0
360 361 362 0
c gate 363 -359 362 0
-359 -363 0
362 -363 0
359 -362 363 0
c gate 364 -4 -76 0
-4 -364 0
-76 -364 0
4 76 364 0
c gate 365 -5 -77 0
-5 -365 0
-77 -365 0
5 77 365 0
c gate 366 -364 -365 0
-364 -366 0
-365 -366 0
364 365 366 0
c gate 367 -363 366 0
-363 -367 0
366 -367 0
363 -366 367 0
c gate 368 6 78 0
6 -368 0
78 -368 0
-6 -78 368 0
c gate 369 5 77 0
5 -369 0
77 -369 0
-5 -77 369 0
c gate 370 -368 -369 0
-368 -370 0
-369 -370 0
368 369 370 0
c gate 371 -367 370 0
-367 -371 0
370 -371 0
367 -370 371 0
c gate 372 -7 -79 0
-7 -372 0
-79 -372 0
7 79 372 0
c gate 373 -6 -78 0
-6 -373 0
-78 -373 0
6 78 373 0
c gate 374 -372 -373 0
-372 -374 0
-373 -374 0
372 373 374 0
c gate 375 -371 374 0
-371 -375 0
374 -375 0
371 -374 375 0
c gate 376 8 80 0
8 -376 0
80 -376 0
-8 -80 376 0
c gate 377 7 79 0
7 -377 0
79 -377 0
-7 -79 377 0
c gate 378 -376 -377 0
-376 -378 0
-377 -378 0
376 377 378 0
c gate 379 -375 378 0
-375 -379 0
378 -379 0
375 -378 379 0
c gate 380 -9 -81 0
-9 -380 0
-81 -380 0
9 81 380 0
c gate 381 -8 -80 0
-8 -381 0
-80 -381 0
8 80 381 0
c gate 382 -380 -381 0
-380 -382 0
-381 -382 0
380 381 382 0
c gate 383 -379 382 0
-379 -383 0
382 -383 0
379 -382 383 0
c gate 384 10 82 0
10 -384 0
82 -384 0
-10 -82 384 0
c gate 385 9 81 0
9 -385 0
81 -385 0
-9 -81 385 0
c gate 386 -384 -385 0
-384 -386 0
-385 -386 0
384 385 386 0
c gate 387 -383 386 0
-383 -387 0
386 -387 0
383 -386 387 0
c gate 388 -10 -82 0
-10 -388 0
-82 -388 0
10 82 388 0
c gate 389 -12 -84 0
-12 -389 0
-84 -389 0
12 84 389 0
c gate 390 -11 -83 0
-11 -390 0
-83 -390 0
11 83 390 0
c gate 391 -389 -390 0
-389 -391 0
-390 -391 0
389 390 391 0
c gate 392 -388 391 0
-388 -392 0
391 -392 0
388 -391 392 0
c gate 393 -387 392 0
-387 -393 0
392 -393 0
387 -392 393 0
c gate 394 12 84 0
12 -394 0
84 -394 0
-12 -84 394 0
c gate 395 11 83 0
11 -395 0
83 -395 0
-11 -83 395 0
c gate 396 -389 395 0
-389 -396 0
395 -396 0
389 -395 396 0
c gate 397 -394 -396 0
-394 -397 0
-396 -397 0
394 396 397 0
c gate 398 -393 397 0
-393 -398 0
397 -398 0
393 -397 398 0
c gate 399 -14 -86 0
-14 -399 0
-86 -399 0
14 86 399 0
c gate 400 -15 -87 0
-15 -400 0
-87 -400 0
15 87 400 0
c gate 401 -399 -400 0
-399 -401 0
-400 -401 0
399 400 401 0
c gate 402 14 86 0
14 -402 0
86 -402 0
-14 -86 402 0
c gate 403 13 85 0
13 -403 0
85 -403 0
-13 -85 403 0
c gate 404 -402 -403 0
-402 -404 0
-403 -404 0
402 403 404 0
c gate 405 -13 -85 0
-13 -405 0
-85 -405 0
13 85 405 0
c gate 406 404 -405 0
404 -406 0
-405 -406 0
-404 405 406 0
c gate 407 401 406 0
401 -407 0
406 -407 0
-401 -406 407 0
c gate 408 -398 407 0
-398 -408 0
407 -408 0
398 -407 408 0
c gate 409 401 -404 0
401 -409 0
-404 -409 0
-401 404 409 0
c gate 410 15 87 0
15 -410 0
87 -410 0
-15 -87 410 0
c gate 411 16 88 0
16 -411 0
88 -411 0
-16 -88 411 0
c gate 412 -410 -411 0
-410 -412 0
-411 -412 0
410 411 412 0
c gate 413 -409 412 0
-409 -413 0
412 -413 0
409 -412 413 0
c gate 414 -408 413 0
-408 -414 0
413 -414 0
408 -413 414 0
c gate 415 -20 -92 0
-20 -415 0
-92 -415 0
20 92 415 0
c gate 416 19 -415 0
19 -416 0
-415 -416 0
-19 415 416 0
c gate 417 91 -415 0
91 -417 0
-415 -417 0
-91 415 417 0
c gate 418 -416 -417 0
-416 -418 0
-417 -418 0
416 417 418 0
c gate 419 -17 -89 0
-17 -419 0
-89 -419 0
17 89 419 0
c gate 420 -16 -88 0
-16 -420 0
-88 -420 0
16 88 420 0
c gate 421 -21 -93 0
-21 -421 0
-93 -421 0
21 93 421 0
c gate 422 -420 -421 0
-420 -422 0
-421 -422 0
420 421 422 0
c gate 423 -419 422 0
-419 -423 0
422 -423 0
419 -422 423 0
c gate 424 22 94 0
22 -424 0
94 -424 0
-22 -94 424 0
c gate 425 21 93 0
21 -425 0
93 -425 0
-21 -93 425 0
c gate 426 -424 -425 0
-424 -426 0
-425 -426 0
424 425 426 0
c gate 427 -24 -96 0
-24 -427 0
-96 -427 0
24 96 427 0
c gate 428 -18 -90 0
-18 -428 0
-90 -428 0
18 90 428 0
c gate 429 -427 -428 0
-427 -429 0
-428 -429 0
427 428 429 0
c gate 430 426 429 0
426 -430 0
429 -430 0
-426 -429 430 0
c gate 431 423 430 0
423 -431 0
430 -431 0
-423 -430 431 0
c gate 432 -418 431 0
-418 -432 0
431 -432 0
418 -431 432 0
c gate 433 20 92 0
20 -433 0
92 -433 0
-20 -92 433 0
c gate 434 91 416 0
91 -434 0
416 -434 0
-91 -416 434 0
c gate 435 -433 -434 0
-433 -435 0
-434 -435 0
433 434 435 0
c gate 436 17 89 0
17 -436 0
89 -436 0
-17 -89 436 0
c gate 437 18 90 0
18 -437 0
90 -437 0
-18 -90 437 0
c gate 438 -436 -437 0
-436 -438 0
-437 -438 0
436 437 438 0
c gate 439 -23 -95 0
-23 -439 0
-95 -439 0
23 95 439 0
c gate 440 -22 -94 0
-22 -440 0
-94 -440 0
22 94 440 0
c gate 441 -439 -440 0
-439 -441 0
-440 -441 0
439 440 441 0
c gate 442 24 96 0
24 -442 0
96 -442 0
-24 -96 442 0
c gate 443 23 95 0
23 -443 0
95 -443 0
-23 -95 443 0
c gate 444 -442 -443 0
-442 -444 0
-443 -444 0
442 443 444 0
c gate 445 441 444 0
441 -445 0
444 -445 0
-441 -444 445 0
c gate 446 438 445 0
438 -446 0
445 -446 0
-438 -445 446 0
c gate 447 435 446 0
435 -447 0
446 -447 0
-435 -446 447 0
c gate 448 432 447 0
432 -448 0
447 -448 0
-432 -447 448 0
c gate 449 -414 448 0
-414 -449 0
448 -449 0
414 -448 449 0
c gate 450 -428 -438 0
-428 -450 0
-438 -450 0
428 438 450 0
c gate 451 -418 450 0
-418 -451 0
450 -451 0
418 -450 451 0
c gate 452 435 -451 0
435 -452 0
-451 -452 0
-435 451 452 0
c gate 453 -421 -452 0
-421 -453 0
-452 -453 0
421 452 453 0
c gate 454 426 -453 0
426 -454 0
-453 -454 0
-426 453 454 0
c gate 455 441 -454 0
441 -455 0
-454 -455 0
-441 454 455 0
c gate 456 444 -455 0
444 -456 0
-455 -456 0
-444 455 456 0
c gate 457 -427 -456 0
-427 -457 0
-456 -457 0
427 456 457 0
c gate 458 -449 -457 0
-449 -458 0
-457 -458 0
449 457 458 0
c gate 459 -25 -97 0
-25 -459 0
-97 -459 0
25 97 459 0
c gate 460 337 -459 0
337 -460 0
-459 -460 0
-337 459 460 0
c gate 461 346 460 0
346 -461 0
460 -461 0
-346 -460 461 0
c gate 462 -323 -347 0
-323 -462 0
-347 -462 0
323 347 462 0
c gate 463 326 462 0
326 -463 0
462 -463 0
-326 -462 463 0
c gate 464 329 332 0
329 -464 0
332 -464 0
-329 -332 464 0
c gate 465 463 464 0
463 -465 0
464 -465 0
-463 -464 465 0
c gate 466 461 465 0
461 -466 0
465 -466 0
-461 -465 466 0
c gate 467 -458 466 0
-458 -467 0
466 -467 0
458 -466 467 0
c gate 468 -352 -467 0
-352 -468 0
-467 -468 0
352 467 468 0
c gate 469 322 -468 0
322 -469 0
-468 -469 0
-322 468 469 0
c gate 470 -312 -469 0
-312 -470 0
-469 -470 0
312 469 470 0
c gate 471 282 -470 0
282 -471 0
-470 -471 0
-282 470 471 0
c gate 472 -276 -471 0
-276 -472 0
-471 -472 0
276 471 472 0
c gate 473 244 -472 0
244 -473 0
-472 -473 0
-244 472 473 0
c gate 474 -235 -473 0
-235 -474 0
-473 -474 0
235 473 474 0
c gate 475 -57 -129 0
-57 -475 0
-129 -475 0
57 129 475 0
c gate 476 156 -475 0
156 -476 0
-475 -476 0
-156 475 476 0
c gate 477 161 476 0
161 -477 0
476 -477 0
-161 -476 477 0
c gate 478 178 477 0
178 -478 0
477 -478 0
-178 -477 478 0
c gate 479 -474 478 0
-474 -479 0
478 -479 0
474 -478 479 0
c gate 480 183 -479 0
183 -480 0
-479 -480 0
-183 479 480 0
c gate 481 72 144 0
72 -481 0
144 -481 0
-72 -144 481 0
c gate 482 71 143 0
71 -482 0
143 -482 0
-71 -143 482 0
c gate 483 -481 -482 0
-481 -483 0
-482 -483 0
481 482 483 0
c gate 484 -72 -144 0
-72 -484 0
-144 -484 0
72 144 484 0
c gate 485 -71 -143 0
-71 -485 0
-143 -485 0
71 143 485 0
c gate 486 -484 -485 0
-484 -486 0
-485 -486 0
484 485 486 0
c gate 487 483 486 0
483 -487 0
486 -487 0
-483 -486 487 0
c gate 488 -70 -142 0
-70 -488 0
-142 -488 0
70 142 488 0
c gate 489 -148 -488 0
-148 -489 0
-488 -489 0
148 488 489 0
c gate 490 147 489 0
147 -490 0
489 -490 0
-147 -489 490 0
c gate 491 487 490 0
487 -491 0
490 -491 0
-487 -490 491 0
c gate 492 199 491 0
199 -492 0
491 -492 0
-199 -491 492 0
c gate 493 -480 492 0
-480 -493 0
492 -493 0
480 -492 493 0
c gate 494 -205 493 0
-205 -494 0
493 -494 0
205 -493 494 0
c PO
494 0
